%%%mzn-stat: initTime=0.008854118
%%%mzn-stat: objective=281
%%%mzn-stat: nodes=22387
%%%mzn-stat: restarts=2
%%%mzn-stat: peakDepth=407
%%%mzn-stat: solveTime=7.781393434
%%%mzn-stat: variables=1078
%%%mzn-stat: propagators=791
%%%mzn-stat: failures=21481
%%%mzn-stat: propagations=1286610
%%%mzn-stat: nogoods=21481
%%%mzn-stat: AverageConflictSize=43.41366789255621
%%%mzn-stat: NumUnitNogoodsLearned=202
%%%mzn-stat: AverageLearnedNogoodLength=57.635957357664914
%%%mzn-stat: AverageBacktrackAmount=0
%%%mzn-stat: AverageLbd=16.025045388948374
%%%mzn-stat-end
maxleg = 281;
succ = array1d(1..50,[16, 4, 38, 8, 50, 7, 17, 3, 23, 28, 42, 29, 24, 31, 46, 2, 43, 20, 40, 34, 30, 41, 11, 25, 21, 45, 35, 47, 48, 9, 12, 36, 15, 13, 49, 26, 39, 14, 32, 5, 1, 44, 10, 22, 19, 27, 18, 37, 6, 33]);
% time elapsed: 14.49 s
----------
%%%mzn-stat: initTime=0.008854118
%%%mzn-stat: objective=203
%%%mzn-stat: nodes=22617
%%%mzn-stat: restarts=2
%%%mzn-stat: peakDepth=407
%%%mzn-stat: solveTime=7.787119616
%%%mzn-stat: variables=1078
%%%mzn-stat: propagators=791
%%%mzn-stat: failures=21481
%%%mzn-stat: propagations=1288167
%%%mzn-stat: nogoods=21481
%%%mzn-stat: AverageConflictSize=43.41366789255621
%%%mzn-stat: NumUnitNogoodsLearned=202
%%%mzn-stat: AverageLearnedNogoodLength=57.635957357664914
%%%mzn-stat: AverageBacktrackAmount=0
%%%mzn-stat: AverageLbd=16.025045388948374
%%%mzn-stat-end
maxleg = 203;
succ = array1d(1..50,[16, 4, 38, 8, 50, 7, 17, 3, 44, 28, 9, 29, 24, 31, 46, 2, 43, 20, 40, 30, 34, 41, 42, 25, 21, 45, 35, 47, 48, 13, 12, 36, 15, 23, 49, 26, 39, 14, 32, 5, 1, 11, 10, 22, 19, 27, 18, 37, 6, 33]);
% time elapsed: 14.49 s
----------
==========
% time elapsed: 14.49 s
%%%mzn-stat: initTime=0.008854118
%%%mzn-stat: objective=203
%%%mzn-stat: nodes=22617
%%%mzn-stat: restarts=2
%%%mzn-stat: peakDepth=407
%%%mzn-stat: solveTime=7.787134098
%%%mzn-stat: variables=1078
%%%mzn-stat: propagators=791
%%%mzn-stat: failures=21481
%%%mzn-stat: propagations=1288167
%%%mzn-stat: nogoods=21481
%%%mzn-stat: AverageConflictSize=43.41366789255621
%%%mzn-stat: NumUnitNogoodsLearned=202
%%%mzn-stat: AverageLearnedNogoodLength=57.635957357664914
%%%mzn-stat: AverageBacktrackAmount=0
%%%mzn-stat: AverageLbd=16.025045388948374
%%%mzn-stat-end
